15 
300 
19.1 24.3 0 0
18.2 24 0 -19
12.6 24.9 -20 -128
14.4 28 20 -13
16.9 28.1 20 -10
20.7 28.2 -20 -90
12.5 26.6 -20 -95
21.8 27.3 20 -14
12.5 22.6 -20 -131
22.5 17 -30 -126
19.9 15 -30 -102
14.9 15.1 -30 -134
11.5 18.6 -30 -70
12.4 29.8 30 -24
17.8 28.1 30 -19
9.1 29.8 -40 -64
10 32.6 40 -18
13.9 33.1 40 -16
19.95 10.3 -40 -92
15.2 8 -40 -92
14.7 31.2 50 -12
7.4 36.5 -50 -69
21 25.5 -50 -124
18 25.3 10 -15
19.5 24.7 10 -26
21.4 21.8 10 -24
16 21.4 -10 -139
18.65 26.2 -10 -78
17.9 28.9 -10 -126
14.3 19.9 20 -14
17 19 20 -23
10.8 21 20 -26
15.7 23.7 10 -25
